p tw 800 1540
1 2
1 336
2 113
2 347
113 224
113 358
224 335
224 369
335 446
335 380
446 557
446 391
557 668
557 402
668 779
668 413
779 790
779 424
790 3
790 435
3 14
3 447
14 25
14 458
25 36
25 469
36 47
36 480
47 58
47 491
58 69
58 502
69 80
69 513
80 91
80 524
91 102
91 535
102 114
102 546
114 125
114 558
125 136
125 569
136 147
136 580
147 158
147 591
158 169
158 602
169 180
169 613
180 191
180 624
191 202
191 635
202 213
202 646
213 225
213 657
225 236
225 669
236 247
236 680
247 258
247 691
258 269
258 702
269 280
269 713
280 291
280 724
291 302
291 735
302 313
302 746
313 324
313 757
324 768
336 347
336 780
347 358
347 781
358 369
358 782
369 380
369 783
380 391
380 784
391 402
391 785
402 413
402 786
413 424
413 787
424 435
424 788
435 447
435 789
447 458
447 791
458 469
458 792
469 480
469 793
480 491
480 794
491 502
491 795
502 513
502 796
513 524
513 797
524 535
524 798
535 546
535 799
546 558
546 800
558 569
558 4
569 580
569 5
580 591
580 6
591 602
591 7
602 613
602 8
613 624
613 9
624 635
624 10
635 646
635 11
646 657
646 12
657 669
657 13
669 680
669 15
680 691
680 16
691 702
691 17
702 713
702 18
713 724
713 19
724 735
724 20
735 746
735 21
746 757
746 22
757 768
757 23
768 24
780 781
780 26
781 782
781 27
782 783
782 28
783 784
783 29
784 785
784 30
785 786
785 31
786 787
786 32
787 788
787 33
788 789
788 34
789 791
789 35
791 792
791 37
792 793
792 38
793 794
793 39
794 795
794 40
795 796
795 41
796 797
796 42
797 798
797 43
798 799
798 44
799 800
799 45
800 4
800 46
4 5
4 48
5 6
5 49
6 7
6 50
7 8
7 51
8 9
8 52
9 10
9 53
10 11
10 54
11 12
11 55
12 13
12 56
13 15
13 57
15 16
15 59
16 17
16 60
17 18
17 61
18 19
18 62
19 20
19 63
20 21
20 64
21 22
21 65
22 23
22 66
23 24
23 67
24 68
26 27
26 70
27 28
27 71
28 29
28 72
29 30
29 73
30 31
30 74
31 32
31 75
32 33
32 76
33 34
33 77
34 35
34 78
35 37
35 79
37 38
37 81
38 39
38 82
39 40
39 83
40 41
40 84
41 42
41 85
42 43
42 86
43 44
43 87
44 45
44 88
45 46
45 89
46 48
46 90
48 49
48 92
49 50
49 93
50 51
50 94
51 52
51 95
52 53
52 96
53 54
53 97
54 55
54 98
55 56
55 99
56 57
56 100
57 59
57 101
59 60
59 103
60 61
60 104
61 62
61 105
62 63
62 106
63 64
63 107
64 65
64 108
65 66
65 109
66 67
66 110
67 68
67 111
68 112
70 71
70 115
71 72
71 116
72 73
72 117
73 74
73 118
74 75
74 119
75 76
75 120
76 77
76 121
77 78
77 122
78 79
78 123
79 81
79 124
81 82
81 126
82 83
82 127
83 84
83 128
84 85
84 129
85 86
85 130
86 87
86 131
87 88
87 132
88 89
88 133
89 90
89 134
90 92
90 135
92 93
92 137
93 94
93 138
94 95
94 139
95 96
95 140
96 97
96 141
97 98
97 142
98 99
98 143
99 100
99 144
100 101
100 145
101 103
101 146
103 104
103 148
104 105
104 149
105 106
105 150
106 107
106 151
107 108
107 152
108 109
108 153
109 110
109 154
110 111
110 155
111 112
111 156
112 157
115 116
115 159
116 117
116 160
117 118
117 161
118 119
118 162
119 120
119 163
120 121
120 164
121 122
121 165
122 123
122 166
123 124
123 167
124 126
124 168
126 127
126 170
127 128
127 171
128 129
128 172
129 130
129 173
130 131
130 174
131 132
131 175
132 133
132 176
133 134
133 177
134 135
134 178
135 137
135 179
137 138
137 181
138 139
138 182
139 140
139 183
140 141
140 184
141 142
141 185
142 143
142 186
143 144
143 187
144 145
144 188
145 146
145 189
146 148
146 190
148 149
148 192
149 150
149 193
150 151
150 194
151 152
151 195
152 153
152 196
153 154
153 197
154 155
154 198
155 156
155 199
156 157
156 200
157 201
159 160
159 203
160 161
160 204
161 162
161 205
162 163
162 206
163 164
163 207
164 165
164 208
165 166
165 209
166 167
166 210
167 168
167 211
168 170
168 212
170 171
170 214
171 172
171 215
172 173
172 216
173 174
173 217
174 175
174 218
175 176
175 219
176 177
176 220
177 178
177 221
178 179
178 222
179 181
179 223
181 182
181 226
182 183
182 227
183 184
183 228
184 185
184 229
185 186
185 230
186 187
186 231
187 188
187 232
188 189
188 233
189 190
189 234
190 192
190 235
192 193
192 237
193 194
193 238
194 195
194 239
195 196
195 240
196 197
196 241
197 198
197 242
198 199
198 243
199 200
199 244
200 201
200 245
201 246
203 204
203 248
204 205
204 249
205 206
205 250
206 207
206 251
207 208
207 252
208 209
208 253
209 210
209 254
210 211
210 255
211 212
211 256
212 214
212 257
214 215
214 259
215 216
215 260
216 217
216 261
217 218
217 262
218 219
218 263
219 220
219 264
220 221
220 265
221 222
221 266
222 223
222 267
223 226
223 268
226 227
226 270
227 228
227 271
228 229
228 272
229 230
229 273
230 231
230 274
231 232
231 275
232 233
232 276
233 234
233 277
234 235
234 278
235 237
235 279
237 238
237 281
238 239
238 282
239 240
239 283
240 241
240 284
241 242
241 285
242 243
242 286
243 244
243 287
244 245
244 288
245 246
245 289
246 290
248 249
248 292
249 250
249 293
250 251
250 294
251 252
251 295
252 253
252 296
253 254
253 297
254 255
254 298
255 256
255 299
256 257
256 300
257 259
257 301
259 260
259 303
260 261
260 304
261 262
261 305
262 263
262 306
263 264
263 307
264 265
264 308
265 266
265 309
266 267
266 310
267 268
267 311
268 270
268 312
270 271
270 314
271 272
271 315
272 273
272 316
273 274
273 317
274 275
274 318
275 276
275 319
276 277
276 320
277 278
277 321
278 279
278 322
279 281
279 323
281 282
281 325
282 283
282 326
283 284
283 327
284 285
284 328
285 286
285 329
286 287
286 330
287 288
287 331
288 289
288 332
289 290
289 333
290 334
292 293
292 337
293 294
293 338
294 295
294 339
295 296
295 340
296 297
296 341
297 298
297 342
298 299
298 343
299 300
299 344
300 301
300 345
301 303
301 346
303 304
303 348
304 305
304 349
305 306
305 350
306 307
306 351
307 308
307 352
308 309
308 353
309 310
309 354
310 311
310 355
311 312
311 356
312 314
312 357
314 315
314 359
315 316
315 360
316 317
316 361
317 318
317 362
318 319
318 363
319 320
319 364
320 321
320 365
321 322
321 366
322 323
322 367
323 325
323 368
325 326
325 370
326 327
326 371
327 328
327 372
328 329
328 373
329 330
329 374
330 331
330 375
331 332
331 376
332 333
332 377
333 334
333 378
334 379
337 338
337 381
338 339
338 382
339 340
339 383
340 341
340 384
341 342
341 385
342 343
342 386
343 344
343 387
344 345
344 388
345 346
345 389
346 348
346 390
348 349
348 392
349 350
349 393
350 351
350 394
351 352
351 395
352 353
352 396
353 354
353 397
354 355
354 398
355 356
355 399
356 357
356 400
357 359
357 401
359 360
359 403
360 361
360 404
361 362
361 405
362 363
362 406
363 364
363 407
364 365
364 408
365 366
365 409
366 367
366 410
367 368
367 411
368 370
368 412
370 371
370 414
371 372
371 415
372 373
372 416
373 374
373 417
374 375
374 418
375 376
375 419
376 377
376 420
377 378
377 421
378 379
378 422
379 423
381 382
381 425
382 383
382 426
383 384
383 427
384 385
384 428
385 386
385 429
386 387
386 430
387 388
387 431
388 389
388 432
389 390
389 433
390 392
390 434
392 393
392 436
393 394
393 437
394 395
394 438
395 396
395 439
396 397
396 440
397 398
397 441
398 399
398 442
399 400
399 443
400 401
400 444
401 403
401 445
403 404
403 448
404 405
404 449
405 406
405 450
406 407
406 451
407 408
407 452
408 409
408 453
409 410
409 454
410 411
410 455
411 412
411 456
412 414
412 457
414 415
414 459
415 416
415 460
416 417
416 461
417 418
417 462
418 419
418 463
419 420
419 464
420 421
420 465
421 422
421 466
422 423
422 467
423 468
425 426
425 470
426 427
426 471
427 428
427 472
428 429
428 473
429 430
429 474
430 431
430 475
431 432
431 476
432 433
432 477
433 434
433 478
434 436
434 479
436 437
436 481
437 438
437 482
438 439
438 483
439 440
439 484
440 441
440 485
441 442
441 486
442 443
442 487
443 444
443 488
444 445
444 489
445 448
445 490
448 449
448 492
449 450
449 493
450 451
450 494
451 452
451 495
452 453
452 496
453 454
453 497
454 455
454 498
455 456
455 499
456 457
456 500
457 459
457 501
459 460
459 503
460 461
460 504
461 462
461 505
462 463
462 506
463 464
463 507
464 465
464 508
465 466
465 509
466 467
466 510
467 468
467 511
468 512
470 471
470 514
471 472
471 515
472 473
472 516
473 474
473 517
474 475
474 518
475 476
475 519
476 477
476 520
477 478
477 521
478 479
478 522
479 481
479 523
481 482
481 525
482 483
482 526
483 484
483 527
484 485
484 528
485 486
485 529
486 487
486 530
487 488
487 531
488 489
488 532
489 490
489 533
490 492
490 534
492 493
492 536
493 494
493 537
494 495
494 538
495 496
495 539
496 497
496 540
497 498
497 541
498 499
498 542
499 500
499 543
500 501
500 544
501 503
501 545
503 504
503 547
504 505
504 548
505 506
505 549
506 507
506 550
507 508
507 551
508 509
508 552
509 510
509 553
510 511
510 554
511 512
511 555
512 556
514 515
514 559
515 516
515 560
516 517
516 561
517 518
517 562
518 519
518 563
519 520
519 564
520 521
520 565
521 522
521 566
522 523
522 567
523 525
523 568
525 526
525 570
526 527
526 571
527 528
527 572
528 529
528 573
529 530
529 574
530 531
530 575
531 532
531 576
532 533
532 577
533 534
533 578
534 536
534 579
536 537
536 581
537 538
537 582
538 539
538 583
539 540
539 584
540 541
540 585
541 542
541 586
542 543
542 587
543 544
543 588
544 545
544 589
545 547
545 590
547 548
547 592
548 549
548 593
549 550
549 594
550 551
550 595
551 552
551 596
552 553
552 597
553 554
553 598
554 555
554 599
555 556
555 600
556 601
559 560
559 603
560 561
560 604
561 562
561 605
562 563
562 606
563 564
563 607
564 565
564 608
565 566
565 609
566 567
566 610
567 568
567 611
568 570
568 612
570 571
570 614
571 572
571 615
572 573
572 616
573 574
573 617
574 575
574 618
575 576
575 619
576 577
576 620
577 578
577 621
578 579
578 622
579 581
579 623
581 582
581 625
582 583
582 626
583 584
583 627
584 585
584 628
585 586
585 629
586 587
586 630
587 588
587 631
588 589
588 632
589 590
589 633
590 592
590 634
592 593
592 636
593 594
593 637
594 595
594 638
595 596
595 639
596 597
596 640
597 598
597 641
598 599
598 642
599 600
599 643
600 601
600 644
601 645
603 604
603 647
604 605
604 648
605 606
605 649
606 607
606 650
607 608
607 651
608 609
608 652
609 610
609 653
610 611
610 654
611 612
611 655
612 614
612 656
614 615
614 658
615 616
615 659
616 617
616 660
617 618
617 661
618 619
618 662
619 620
619 663
620 621
620 664
621 622
621 665
622 623
622 666
623 625
623 667
625 626
625 670
626 627
626 671
627 628
627 672
628 629
628 673
629 630
629 674
630 631
630 675
631 632
631 676
632 633
632 677
633 634
633 678
634 636
634 679
636 637
636 681
637 638
637 682
638 639
638 683
639 640
639 684
640 641
640 685
641 642
641 686
642 643
642 687
643 644
643 688
644 645
644 689
645 690
647 648
647 692
648 649
648 693
649 650
649 694
650 651
650 695
651 652
651 696
652 653
652 697
653 654
653 698
654 655
654 699
655 656
655 700
656 658
656 701
658 659
658 703
659 660
659 704
660 661
660 705
661 662
661 706
662 663
662 707
663 664
663 708
664 665
664 709
665 666
665 710
666 667
666 711
667 670
667 712
670 671
670 714
671 672
671 715
672 673
672 716
673 674
673 717
674 675
674 718
675 676
675 719
676 677
676 720
677 678
677 721
678 679
678 722
679 681
679 723
681 682
681 725
682 683
682 726
683 684
683 727
684 685
684 728
685 686
685 729
686 687
686 730
687 688
687 731
688 689
688 732
689 690
689 733
690 734
692 693
692 736
693 694
693 737
694 695
694 738
695 696
695 739
696 697
696 740
697 698
697 741
698 699
698 742
699 700
699 743
700 701
700 744
701 703
701 745
703 704
703 747
704 705
704 748
705 706
705 749
706 707
706 750
707 708
707 751
708 709
708 752
709 710
709 753
710 711
710 754
711 712
711 755
712 714
712 756
714 715
714 758
715 716
715 759
716 717
716 760
717 718
717 761
718 719
718 762
719 720
719 763
720 721
720 764
721 722
721 765
722 723
722 766
723 725
723 767
725 726
725 769
726 727
726 770
727 728
727 771
728 729
728 772
729 730
729 773
730 731
730 774
731 732
731 775
732 733
732 776
733 734
733 777
734 778
736 737
737 738
738 739
739 740
740 741
741 742
742 743
743 744
744 745
745 747
747 748
748 749
749 750
750 751
751 752
752 753
753 754
754 755
755 756
756 758
758 759
759 760
760 761
761 762
762 763
763 764
764 765
765 766
766 767
767 769
769 770
770 771
771 772
772 773
773 774
774 775
775 776
776 777
777 778
